(set-logic HORN)
(declare-fun state ((Array Int Int) (Array Int Int) Int Int (Array Int Int) Int Int Bool Int) Bool)
(assert (forall ((|a_1| (Array Int Int)) (|b_1| (Array Int Int)) (|i_0| Int) (|N_1| Int) (|.y.4| (Array Int Int)) (|.y.5| Int) (|.y.6| Int) (|.loc.7| Bool) (|i1_1| Int) (|.x.3| (Array Int Int)) (|.x.4| (Array Int Int)) (|.loc.10| Bool) (|.x.6| Int) (|.x.5| Int) (|c| (Array Int Int)) (|.y.8| Int) (|.y.9| Int) (|.xpv.1| Int)) (=> (and (= i_0 0) (not .loc.7)) (state |a_1| |b_1| |i_0| |N_1| |.y.4| |.y.5| |.y.6| |.loc.7| |i1_1|))))
(assert (forall ((|a_1| (Array Int Int)) (|b_1| (Array Int Int)) (|i_0| Int) (|N_1| Int) (|.y.4| (Array Int Int)) (|.y.5| Int) (|.y.6| Int) (|.loc.7| Bool) (|i1_1| Int) (|.x.3| (Array Int Int)) (|.x.4| (Array Int Int)) (|.loc.10| Bool) (|.x.6| Int) (|.x.5| Int) (|c| (Array Int Int)) (|.y.8| Int) (|.y.9| Int) (|.xpv.1| Int)) (=> (and (state |a_1| |b_1| |i_0| |N_1| |.y.4| |.y.5| |.y.6| |.loc.7| |i1_1|) (let ((.def_21 (not .loc.7))) (let ((.def_35 (<= N_1 i_0))) (or (and (and (and (= a_1 .x.3) (= b_1 .x.4)) .loc.10) (or (and .def_21 (and (= N_1 .x.6) (and (= .x.5 2) .def_35))) (and (not (<= .y.6 .y.5)) (and (= (store .y.4 .y.5 (+ (select a_1 .y.5) (select b_1 .y.5))) c) (and (= (+ .y.5 (* (- 1) .x.5)) (- 1)) (and .loc.7 (= .y.6 .x.6))))))) (and (= .x.3 (store a_1 i_0 1)) (and (= .x.4 (store b_1 i_0 2)) (and (= (+ i_0 (* (- 1) .y.8)) (- 1)) (and (= N_1 .y.9) (and (not .loc.10) (and .def_21 (not .def_35))))))))))) (state |.x.3| |.x.4| |.y.8| |.y.9| |c| |.x.5| |.x.6| |.loc.10| |.xpv.1|))))
(assert (forall ((|a_1| (Array Int Int)) (|b_1| (Array Int Int)) (|i_0| Int) (|N_1| Int) (|.y.4| (Array Int Int)) (|.y.5| Int) (|.y.6| Int) (|.loc.7| Bool) (|i1_1| Int) (|.x.3| (Array Int Int)) (|.x.4| (Array Int Int)) (|.loc.10| Bool) (|.x.6| Int) (|.x.5| Int) (|c| (Array Int Int)) (|.y.8| Int) (|.y.9| Int) (|.xpv.1| Int)) (=> (state |a_1| |b_1| |i_0| |N_1| |.y.4| |.y.5| |.y.6| |.loc.7| |i1_1|) (not (and .loc.7 (and (<= .y.6 .y.5) (and (not (<= i1_1 0)) (and (not (<= 3 (select .y.4 i1_1))) (not (<= .y.6 i1_1))))))))))
(check-sat)
